c ind 25 27 29 3 31 33 35 37 39 4 0
c ind 41 43 45 47 49 51 53 55 59 6 0
c ind 7 0
p cnf 60 146
-1 -2 5 0
-1 2 8 0
-10 11 0
-10 52 0
-11 12 0
-11 50 0
-12 13 0
-12 48 0
-13 14 0
-13 46 0
-14 15 0
-14 44 0
-15 16 0
-15 42 0
-16 17 0
-16 40 0
-17 18 0
-17 38 0
-18 19 0
-18 36 0
-19 20 0
-19 34 0
-2 -3 4 0
-2 -4 3 0
-20 21 0
-20 32 0
-21 22 0
-21 30 0
-22 23 0
-22 28 0
-23 24 0
-23 26 0
-24 -25 4 0
-24 -4 25 0
-26 -27 4 0
-26 -4 27 0
-28 -29 4 0
-28 -4 29 0
-30 -31 4 0
-30 -4 31 0
-32 -33 4 0
-32 -4 33 0
-34 -35 4 0
-34 -4 35 0
-36 -37 4 0
-36 -4 37 0
-38 -39 4 0
-38 -4 39 0
-40 -4 41 0
-40 -41 4 0
-42 -4 43 0
-42 -43 4 0
-44 -4 45 0
-44 -45 4 0
-46 -4 47 0
-46 -47 4 0
-48 -4 49 0
-48 -49 4 0
-5 -6 7 0
-5 -7 6 0
-50 -4 51 0
-50 -51 4 0
-52 -4 53 0
-52 -53 4 0
-54 -4 55 0
-54 -55 4 0
-56 -57 6 0
-56 -6 57 0
-57 -58 -7 0
-57 58 7 0
-58 -59 -4 0
-58 59 4 0
-60 -59 6 0
-60 -6 59 0
-7 0
-8 -9 56 0
-8 9 60 0
-9 10 0
-9 54 0
1 -2 -5 0
1 -5 -8 0
1 0
1 2 -8 0
10 -11 -52 0
11 -12 -50 0
12 -13 -48 0
13 -14 -46 0
14 -15 -44 0
15 -16 -42 0
16 -17 -40 0
17 -18 -38 0
18 -19 -36 0
19 -20 -34 0
2 -3 -4 0
2 3 4 0
20 -21 -32 0
21 -22 -30 0
22 -23 -28 0
23 -24 -26 0
24 -25 -4 0
24 25 4 0
26 -27 -4 0
26 27 4 0
28 -29 -4 0
28 29 4 0
30 -31 -4 0
30 31 4 0
32 -33 -4 0
32 33 4 0
34 -35 -4 0
34 35 4 0
36 -37 -4 0
36 37 4 0
38 -39 -4 0
38 39 4 0
4 0
40 -41 -4 0
40 41 4 0
42 -43 -4 0
42 43 4 0
44 -45 -4 0
44 45 4 0
46 -47 -4 0
46 47 4 0
48 -49 -4 0
48 49 4 0
5 -6 -7 0
5 6 7 0
50 -51 -4 0
50 51 4 0
52 -53 -4 0
52 53 4 0
54 -55 -4 0
54 55 4 0
56 -6 -57 0
56 6 57 0
57 -58 7 0
57 -7 58 0
58 -4 59 0
58 -59 4 0
60 -6 -59 0
60 6 59 0
8 -56 -60 0
8 -9 -56 0
8 9 -60 0
9 -10 -54 0
